<instance format="XCSP3" type="CSP">
  <constraints>
    <element id="c1">
      <list startIndex="1"> x1 x2 x3 x4 </list>
      <index> i </index>
      <condition> (eq,v) </condition>
    </element>
    <element id="c2">
      <list> y[] </list>
      <value> z </value>
    </element>
  </constraints>
</instance>
